\ Model obj1
\ LP format - for model browsing. Use MPS format to capture full model detail.
Minimize
  64 x_1 + 73 x_2 + 46 x_3 + 56 x_4 + 60 x_5 + 63 x_6 + 68 x_7 + 76 x_8
   + 43 x_9 + 48 x_10 + 72 x_11 + 56 x_12 + 51 x_13 + 64 x_14 + 65 x_15
   + 71 x_16 + 40 x_17 + 78 x_18 + 66 x_19 + 79 x_20 + t
Subject To
 c1: x_1 + x_2 + x_3 + x_4 + x_5 + x_6 + x_7 + x_8 + x_9 + x_10 + x_11
   + x_12 + x_13 + x_14 + x_15 + x_16 + x_17 + x_18 + x_19 + x_20 <= 20
Bounds
 t >= -25191
Binaries
 x_1 x_2 x_3 x_4 x_5 x_6 x_7 x_8 x_9 x_10 x_11 x_12 x_13 x_14 x_15 x_16
 x_17 x_18 x_19 x_20
End
